25 500
  0     35.0     35.0       0.0     1000.0      0.0       0.0       0.0  
  1     41.0     49.0      658.0     898.0     10.0       7.0      10.0  
  2     35.0     17.0      93.0      333.0     10.0      10.0       7.0  
  3     55.0     45.0      436.0     676.0     10.0      25.0      13.0  
  4     55.0     20.0      620.0     860.0     10.0      35.0      19.0  
  5     15.0     30.0      20.0      260.0     10.0      26.0      26.0  
  6     25.0     30.0      345.0     585.0     10.0       4.0       3.0  
  7     20.0     50.0      251.0     491.0     10.0       7.0       5.0  
  8     10.0     43.0      323.0     563.0     10.0      12.0       9.0  
  9     55.0     60.0      329.0     569.0     10.0       9.0      16.0  
 10     30.0     60.0      485.0     725.0     10.0       2.0      16.0  
 11     20.0     65.0      146.0     386.0     10.0      10.0      12.0  
 12     50.0     35.0      167.0     407.0     10.0      30.0      19.0  
 13     30.0     25.0      639.0     879.0     10.0      27.0      23.0  
 14     15.0     10.0      32.0      272.0     10.0       5.0      20.0  
 15     30.0      5.0      118.0     358.0     10.0       4.0       8.0  
 16     10.0     20.0      203.0     443.0     10.0      20.0      19.0  
 17      5.0     30.0      682.0     922.0     10.0       1.0       2.0  
 18     20.0     40.0      286.0     526.0     10.0       1.0      12.0  
 19     15.0     60.0      204.0     444.0     10.0      22.0      17.0  
 20     45.0     65.0      504.0     744.0     10.0      17.0       9.0  
 21     45.0     20.0      153.0     393.0     10.0      14.0      11.0  
 22     45.0     10.0      332.0     572.0     10.0      14.0      18.0  
 23     55.0      5.0      146.0     386.0     10.0      46.0      29.0  
 24     65.0     35.0      656.0     896.0     10.0       5.0       3.0  
 25     65.0     20.0      716.0     956.0     10.0       2.0       6.0  
 26     45.0     30.0      508.0     748.0     10.0      17.0      17.0  
 27     35.0     40.0      60.0      300.0     10.0      12.0      16.0  
 28     41.0     37.0      65.0      305.0     10.0       3.0      16.0  
 29     64.0     42.0      132.0     372.0     10.0      16.0       9.0  
 30     40.0     60.0      187.0     427.0     10.0      36.0      21.0  
 31     31.0     52.0      94.0      334.0     10.0      35.0      27.0  
 32     35.0     69.0      599.0     839.0     10.0      32.0      23.0  
 33     53.0     52.0      24.0      264.0     10.0      19.0      11.0  
 34     65.0     55.0      452.0     692.0     10.0      12.0      14.0  
 35     63.0     65.0      630.0     870.0     10.0       1.0       8.0  
 36      2.0     60.0      41.0      281.0     10.0       8.0       5.0  
 37     20.0     20.0      530.0     770.0     10.0       5.0       8.0  
 38      5.0      5.0      234.0     474.0     10.0      15.0      16.0  
 39     60.0     12.0      33.0      273.0     10.0      40.0      31.0  
 40     40.0     25.0      279.0     519.0     10.0       9.0       9.0  
 41     42.0      7.0      334.0     574.0     10.0       9.0       5.0  
 42     24.0     12.0      25.0      265.0     10.0       9.0       5.0  
 43     23.0      3.0      543.0     783.0     10.0      11.0       7.0  
 44     11.0     14.0      167.0     407.0     10.0       7.0      18.0  
 45      6.0     38.0      29.0      269.0     10.0      13.0      16.0  
 46      2.0     48.0      452.0     692.0     10.0       2.0       1.0  
 47      8.0     56.0      48.0      288.0     10.0      37.0      27.0  
 48     13.0     52.0      720.0     960.0     10.0      24.0      36.0  
 49      6.0     68.0      401.0     641.0     10.0       6.0      30.0  
 50     47.0     47.0      475.0     715.0     10.0      16.0      13.0  
